175
500
350	1
349	1
348	1
345	1
343	1
342	3
341	2
340	3
339	1
338	2
334	2
333	1
332	1
329	1
328	1
327	3
326	1
325	2
323	2
322	1
318	1
316	1
315	3
314	2
313	1
312	1
310	3
308	2
307	1
306	1
305	2
304	1
303	1
301	2
300	2
299	2
298	3
295	3
294	1
290	3
288	1
287	1
286	1
285	1
284	1
283	1
282	2
281	1
273	1
272	2
271	2
270	2
267	1
266	1
265	2
262	2
261	2
259	3
257	1
255	2
254	2
253	1
248	2
247	1
246	2
244	2
243	1
241	1
239	1
238	3
237	1
236	1
235	2
234	1
233	3
232	1
231	2
230	1
229	1
228	2
227	3
226	1
225	3
224	2
222	2
221	1
218	1
217	1
216	1
215	3
214	1
212	1
211	1
210	1
209	4
208	2
207	2
206	1
205	1
204	1
203	1
202	1
200	1
198	2
197	2
196	2
194	2
192	2
191	1
190	2
189	1
188	1
187	1
186	1
185	1
184	1
181	1
178	3
176	2
175	1
174	3
173	5
172	2
171	1
168	2
167	3
166	1
165	1
164	1
162	2
160	2
159	3
158	1
157	1
156	2
155	2
154	1
153	1
150	2
148	1
147	1
146	1
145	2
144	1
143	3
142	1
140	2
138	3
137	1
134	3
133	1
132	2
131	1
130	6
127	2
126	2
124	2
123	1
122	1
121	4
120	5
118	1
117	2
116	3
115	2
113	4
111	3
110	1
109	3
107	1
106	1
105	2
104	1
103	1
101	3
